7370597893498656846501,9,1,2,06,2,1,2,02,2,1,2,09,1,1,2,09,1,1,2,09,7,1,2,06,1,1,2,011,2,1,2,014,8,1,2,09,3,1,2,05,4,1,2,02,5,1,2,012,7,1,2,05,9,1,2,04,12,1,2,01,14,1,2,09,10,1,2,013,5,1,2,012,14,1,2,014,12,1,2,04,9,1,2,03,15,1,2,03,7,1,2,03,7,1,2,015,12,1,2,01,13,1,2,02,15,1,2,03,11,1,2,09,4,1,2,09,3,1,2,06,7,1,2,01,8,1,2,01,4,1,2,014,5,1,2,011,11,1,2,07,11,1,2,07,13,1,2,015,14,1,2,03,1,1,2,07,5,1,2,012,6,1,2,05,4,1,2,04,14,1,2,07,9,1,2,09,2,1,2,07,13,1,2,09,6,1,2,012,15,1,2,05,5,1,2,06,8,1,2,0